116
200
160	4
159	2
158	1
157	6
156	4
155	1
153	6
152	4
151	3
150	2
149	4
148	2
147	5
146	4
145	3
144	5
143	2
142	7
141	6
140	3
139	4
137	3
136	4
135	3
134	5
133	6
132	4
131	3
130	3
129	3
128	3
127	2
126	2
125	5
124	4
123	3
122	8
121	5
120	3
119	4
118	2
117	1
116	5
115	1
114	1
113	4
112	2
111	3
110	7
109	2
108	6
107	4
106	4
105	4
104	4
102	1
101	1
100	5
99	3
98	3
97	1
96	3
95	8
94	4
93	4
92	2
91	5
90	5
89	4
88	2
87	7
86	2
85	3
84	3
83	2
82	4
81	1
80	2
79	3
76	7
75	5
74	3
73	5
72	4
71	2
70	2
69	3
68	5
67	2
66	6
65	3
64	2
63	4
62	1
61	2
60	1
59	4
58	5
57	3
56	4
55	6
54	6
53	4
52	2
51	1
50	4
49	2
48	4
47	2
46	3
45	2
44	2
43	1
42	3
41	3
40	3
